NAME : B-n10-4
DIMENSION : 10
VEHICLE NUMBER : 5
VEHICLE CAPACITY : 70
MAX POD NUMBER : 2
NODE_COORD_SECTION 
 1 78 95
 2 93 43
 3 57 4
 4 2 80
 5 10 17
 6 31 8
 7 10 87
 8 97 50
 9 16 93
 10 98 48
DEMAND_SECTION 
1 0 
2 12 
3 3 
4 2 
5 13 
6 17 
7 12 
8 1 
9 26 
10 13 
DEPOT_SECTION 
 1  
 -1  
EOF 
